p cnf 7230 17
2068 4488 4500 4516 4838 -5048 0
-2068 -5049 0
-4488 -5049 0
-4500 -5049 0
-2788 -4454 -5046 0
2788 -5047 0
-4516 -5049 0
5048 5049 0
5046 5047 0
5044 5045 0
4478 -5045 0
-4478 -5044 0
4454 -5047 0
-4838 -5049 0
-2070 -5051 0
5042 5043 0
-5042 -5043 0
